data/CVRPLIB/Vrp-Set-XML100/instances/XML100_1114_07.vrp
NAME : XML100_1114_07
COMMENT : Generated by Queiroga, Sadykov, Uchoa, and Vidal (2021)
TYPE : CVRP
DIMENSION : 101
EDGE_WEIGHT_TYPE : EUC_2D
CAPACITY : 12
NODE_COORD_SECTION
1    903  626 
2    300  615 
3    679  525 
4    700  246 
5    85   286 
6    927  822 
7    399  690 
8    34   322 
9    163  464 
10   879  219 
11   365  24  
12   758  822 
13   810  333 
14   113  171 
15   382  138 
16   316  206 
17   127  185 
18   360  443 
19   4    528 
20   241  450 
21   222  415 
22   501  491 
23   215  710 
24   303  731 
25   853  20  
26   571  335 
27   301  324 
28   744  42  
29   670  139 
30   962  733 
31   552  695 
32   476  630 
33   810  888 
34   790  417 
35   679  135 
36   252  301 
37   450  677 
38   993  894 
39   770  708 
40   687  519 
41   472  136 
42   786  163 
43   282  888 
44   708  976 
45   748  436 
46   452  132 
47   559  200 
48   961  800 
49   95   737 
50   135  992 
51   327  623 
52   920  988 
53   746  733 
54   122  140 
55   953  784 
56   326  199 
57   441  429 
58   389  347 
59   816  460 
60   378  385 
61   180  21  
62   862  60  
63   642  204 
64   916  337 
65   903  247 
66   853  686 
67   465  359 
68   988  663 
69   917  190 
70   206  992 
71   394  311 
72   689  402 
73   240  294 
74   132  554 
75   972  736 
76   395  663 
77   80   52  
78   181  529 
79   281  880 
80   867  35  
81   385  972 
82   527  697 
83   976  648 
84   173  410 
85   774  994 
86   386  419 
87   820  178 
88   310  31  
89   877  853 
90   373  184 
91   773  882 
92   827  784 
93   205  827 
94   314  882 
95   213  315 
96   309  372 
97   390  605 
98   920  366 
99   25   498 
100  282  327 
101  428  311 
DEMAND_SECTION
1    0   
2    1   
3    1   
4    1   
5    1   
6    1   
7    1   
8    1   
9    1   
10   1   
11   1   
12   1   
13   1   
14   1   
15   1   
16   1   
17   1   
18   1   
19   1   
20   1   
21   1   
22   1   
23   1   
24   1   
25   1   
26   1   
27   1   
28   1   
29   1   
30   1   
31   1   
32   1   
33   1   
34   1   
35   1   
36   1   
37   1   
38   1   
39   1   
40   1   
41   1   
42   1   
43   1   
44   1   
45   1   
46   1   
47   1   
48   1   
49   1   
50   1   
51   1   
52   1   
53   1   
54   1   
55   1   
56   1   
57   1   
58   1   
59   1   
60   1   
61   1   
62   1   
63   1   
64   1   
65   1   
66   1   
67   1   
68   1   
69   1   
70   1   
71   1   
72   1   
73   1   
74   1   
75   1   
76   1   
77   1   
78   1   
79   1   
80   1   
81   1   
82   1   
83   1   
84   1   
85   1   
86   1   
87   1   
88   1   
89   1   
90   1   
91   1   
92   1   
93   1   
94   1   
95   1   
96   1   
97   1   
98   1   
99   1   
100  1   
101  1   
DEPOT_SECTION
1
-1
EOF
