data/CVRPLIB/Vrp-Set-XML100/solutions/XML100_1114_07.sol
Route #1: 10 87 60 76 53 13 16 4 7 98 18 73
Route #2: 65 91 88 32 90 43 84 51 37 5 47 54
Route #3: 12 86 41 27 24 79 61 68 9 64 63 97
Route #4: 82 67 74 29
Route #5: 11 80 93 78 42 69 49 92 48 22 23 6
Route #6: 38 52 30 81 36 75 50 1 96 31 2 39
Route #7: 21 56 85 59 57 70 100 66 25 71 44 58
Route #8: 15 55 89 14 45 40 46 62 28 34 3 33
Route #9: 17 19 77 8 83 20 94 72 35 99 26 95
Cost 13786
